16
12
7 11
4 0 3 15 1 8 5 7 12 10 9 6 13 14 2
1 11 8 0 5 9 15 4 2 10 7 6 3
11 14 12 10 3 2 13 8 0 6
11 7 5 10 1 2 6 4 3 9
15 7 5 10 12 1 14 11 4 13 8 0
11 8 14
15 8 13 14 4 9 12 2 10
4 1 3
3 4 2 14 13 11 7 6 1 9 0 15 12 8 10 5
4 14 9 10 5 11 2 1 12
4 5 9 0 13 11 14 7
